n = 13;
lu = [|-47, -7
      |-28, -18
      |-31, 53
      |-82, 46
      |-166, -67
      |-121, -56
      |-64, 83
      |98, 155
      |-84, 133
      |57, 104
      |-160, -15
      |-69, 43
      |-93, -64|];
